Maximize
  NxS_e0 + NxS_e1 + NxS_e3 + NxS_e4 + NxS_e5 + NxS_e6 + NxS_e7 + NxS_e9 + NxS_e11 + NxS_e12 + NxS_e13 + NxS_e15 + NxS_e16 + NxS_e18 + NxS_e20 + NxS_e22
Subject to
  -S_BB_1 + S_e_0 = 0
  -S_BB_1 = 0
  -S_BB_2 + S_e_1 = 0
  -S_BB_2 + S_e_0 + S_e_4 = 0
  -S_BB_3 + S_e_3 = 0
  -S_BB_3 + S_e_1 = 0
  -S_BB_4 + S_e_4 + S_e_5 = 0
  -S_BB_4 + S_e_3 = 0
  -S_BB_5 + S_e_6 = 0
  -S_BB_5 + S_e_5 = 0
  -S_BB_6 + S_e_7 = 0
  -S_BB_6 + S_e_6 = 0
  -S_BB_7 + S_e_9 = 0
  -S_BB_7 + S_e_7 = 0
  -S_BB_8 + S_e_11 = 0
  -S_BB_8 + S_e_9 = 0
  -S_BB_9 + S_e_12 = 0
  -S_BB_9 + S_e_11 = 0
  -S_BB_10 + S_e_13 = 0
  -S_BB_10 + S_e_12 = 0
  -S_BB_11 + S_e_15 = 0
  -S_BB_11 + S_e_13 = 0
  -S_BB_12 + S_e_16 = 0
  -S_BB_12 + S_e_15 = 0
  -S_BB_13 + S_e_18 = 0
  -S_BB_13 + S_e_16 = 0
  -S_BB_14 + S_e_20 = 0
  -S_BB_14 + S_e_18 = 0
  -S_BB_15 + S_e_22 = 0
  -S_BB_15 + S_e_20 = 0
  -S_BB_16 = 0
  -S_BB_16 + S_e_22 = 0
  NxS_e0 - N <= 0
  -32 S_e_0 + NxS_e0 <= 0
  -32 S_e_0 + NxS_e0 - N >= -32
  -31 S_e_0 - N >= -32
  NxS_e1 - N <= 0
  -32 S_e_1 + NxS_e1 <= 0
  -32 S_e_1 + NxS_e1 - N >= -32
  -N >= -32
  NxS_e3 - N <= 0
  -32 S_e_3 + NxS_e3 <= 0
  -32 S_e_3 + NxS_e3 - N >= -32
  -N >= -32
  NxS_e4 - N <= 0
  -32 S_e_4 + NxS_e4 <= 0
  -32 S_e_4 + NxS_e4 - N >= -32
  -S_e_4 - N >= -32
  NxS_e5 - N <= 0
  -32 S_e_5 + NxS_e5 <= 0
  -32 S_e_5 + NxS_e5 - N >= -32
  -31 S_e_5 - N >= -32
  NxS_e6 - N <= 0
  -32 S_e_6 + NxS_e6 <= 0
  -32 S_e_6 + NxS_e6 - N >= -32
  -31 S_e_6 - N >= -32
  NxS_e7 - N <= 0
  -32 S_e_7 + NxS_e7 <= 0
  -32 S_e_7 + NxS_e7 - N >= -32
  -31 S_e_7 - N >= -32
  NxS_e9 - N <= 0
  -32 S_e_9 + NxS_e9 <= 0
  -32 S_e_9 + NxS_e9 - N >= -32
  -31 S_e_9 - N >= -32
  NxS_e11 - N <= 0
  -32 S_e_11 + NxS_e11 <= 0
  -32 S_e_11 + NxS_e11 - N >= -32
  -31 S_e_11 - N >= -32
  NxS_e12 - N <= 0
  -32 S_e_12 + NxS_e12 <= 0
  -32 S_e_12 + NxS_e12 - N >= -32
  -31 S_e_12 - N >= -32
  NxS_e13 - N <= 0
  -32 S_e_13 + NxS_e13 <= 0
  -32 S_e_13 + NxS_e13 - N >= -32
  -31 S_e_13 - N >= -32
  NxS_e15 - N <= 0
  -32 S_e_15 + NxS_e15 <= 0
  -32 S_e_15 + NxS_e15 - N >= -32
  -31 S_e_15 - N >= -32
  NxS_e16 - N <= 0
  -32 S_e_16 + NxS_e16 <= 0
  -32 S_e_16 + NxS_e16 - N >= -32
  -31 S_e_16 - N >= -32
  NxS_e18 - N <= 0
  -32 S_e_18 + NxS_e18 <= 0
  -32 S_e_18 + NxS_e18 - N >= -32
  -31 S_e_18 - N >= -32
  NxS_e20 - N <= 0
  -32 S_e_20 + NxS_e20 <= 0
  -32 S_e_20 + NxS_e20 - N >= -32
  -31 S_e_20 - N >= -32
  NxS_e22 - N <= 0
  -32 S_e_22 + NxS_e22 <= 0
  -32 S_e_22 + NxS_e22 - N >= -32
  -31 S_e_22 - N >= -32
  S_e_4 = 1
Bounds
  0 <= NxS_e0 <= 1
  0 <= NxS_e1 <= 32
  0 <= NxS_e3 <= 32
  0 <= NxS_e4 <= 31
  0 <= NxS_e5 <= 1
  0 <= NxS_e6 <= 1
  0 <= NxS_e7 <= 1
  0 <= NxS_e9 <= 1
  0 <= NxS_e11 <= 1
  0 <= NxS_e12 <= 1
  0 <= NxS_e13 <= 1
  0 <= NxS_e15 <= 1
  0 <= NxS_e16 <= 1
  0 <= NxS_e18 <= 1
  0 <= NxS_e20 <= 1
  0 <= NxS_e22 <= 1
  0 <= N <= 32
General
  N
Binary
  S_BB_1 S_BB_2 S_BB_3 S_BB_4 S_BB_5 S_BB_6 S_BB_7 S_BB_8 S_BB_9 S_BB_10 S_BB_11 S_BB_12 S_BB_13 S_BB_14 S_BB_15 S_BB_16 S_e_0 S_e_1 S_e_3 S_e_4 S_e_5 S_e_6 S_e_7 S_e_9 S_e_11 S_e_12 S_e_13 S_e_15 S_e_16 S_e_18 S_e_20 S_e_22
End
